10J3M/DAT/10J3MUNL-1.dat
10 3
35.8344 35.8344
19.8047 19.8047
17.584 17.584
8.4396 8.4396
3.4837 3.4837
0.3381 0.3381
0.2849 0.2849
25.1279 25.1279
33.4278 33.4278
0.5202 0.5202
144.8453