10J3M/SOL/10J3MUNL-1.sol
solution status: optimal solution found
objective value:                     82.8948333333333
x#1#1                               0.806521779395354 	(obj:0)
x#1#2                               0.193478220604646 	(obj:0)
x#2#3                                               1 	(obj:0)
x#3#1                                               1 	(obj:0)
x#4#1                                               1 	(obj:0)
x#5#1                                               1 	(obj:0)
x#6#2                              0.0684453416139374 	(obj:0)
x#6#3                               0.931554658386063 	(obj:0)
x#7#2                                               1 	(obj:0)
x#8#1                                               1 	(obj:0)
x#9#1                                               1 	(obj:0)
x#10#2                                              1 	(obj:0)
z                                    82.8948333333333 	(obj:1)
